%%%%%%%%%%%%%%%%%%%%%%%%%%%%%%%%%%%%
%% Produces 1 plate.
%% 2022/Dec/20: It takes about ? sec


%% Plate dimentions: (this is a 384-well plate)
num_rows = 16; %% height
num_cols = 24; %% width


horizontal_cell_lines = 1;
vertical_cell_lines = 1;

allow_empty_wells = true;

% New and used!
concentrations_on_different_rows = false;
concentrations_on_different_columns = false;

% New and unused! (Restriction: replicates_on_different_plates /\ replicates_on_same_plate == false)
replicates_on_different_plates = false;
replicates_on_same_plate = false;

size_empty_edge = 1;


%%% Compounds %%%
compounds = 26; %% number of drugs/compounds
compound_concentrations	 = [5| i in 1..compounds]; 

compound_names = ["comp\(i)" | i in 1..compounds];

compound_replicates	 = [2| i in 1..compounds]; 

compound_concentration_names = [|"0.1", "0.3", "1", "3", "10"
|"0.1", "0.3", "1", "3", "10"
|"0.1", "0.3", "1", "3", "10"
|"0.1", "0.3", "1", "3", "10"
|"0.1", "0.3", "1", "3", "10"
|"0.1", "0.3", "1", "3", "10"
|"0.1", "0.3", "1", "3", "10"
|"0.1", "0.3", "1", "3", "10"
|"0.1", "0.3", "1", "3", "10"
|"0.1", "0.3", "1", "3", "10"
|"0.1", "0.3", "1", "3", "10"
|"0.1", "0.3", "1", "3", "10"
|"0.1", "0.3", "1", "3", "10"
|"0.1", "0.3", "1", "3", "10"
|"0.1", "0.3", "1", "3", "10"
|"0.1", "0.3", "1", "3", "10"
|"0.1", "0.3", "1", "3", "10"
|"0.1", "0.3", "1", "3", "10"
|"0.1", "0.3", "1", "3", "10"
|"0.1", "0.3", "1", "3", "10"
|"0.1", "0.3", "1", "3", "10"
|"0.1", "0.3", "1", "3", "10"
|"0.1", "0.3", "1", "3", "10"
|"0.1", "0.3", "1", "3", "10"
|"0.1", "0.3", "1", "3", "10"
|"0.1", "0.3", "1", "3", "10"|];

compound_concentration_indicators = ["" | i in 1..5]; 


%%% Combinations %%%
combinations = 	0;
combination_names = [];
combination_concentration_names = [];
combination_concentrations = 0;


%%% Controls %%%
num_controls = 7;
control_replicates = [2,2,2,2,2,2,22];
control_concentrations = [1,1,1,1,1,1,1];
control_names = ["a","b","c","d","e","f","dmso"];

control_concentration_names =  [|"a"|"b"|"c"|"d"|"e"|"f"|"100"|];  
  
